# Solution for model r10_t9_m9_6
# Finished Task: 9 / 9
# Makespan: 329.0, Total Distance: 478.0, Total Time: 0.0154
# R O S F
0 0 12 0.0 0.0
1 1 17 0.0 0.0
2 2 15 0.0 0.0
3 3 13 0.0 0.0
4 4 -1 0.0 0.0
5 5 11 0.0 0.0
6 6 -1 0.0 0.0
7 7 -1 0.0 0.0
8 8 -1 0.0 0.0
9 9 -1 0.0 0.0
10 2 -1 258.0 296.0
11 5 -1 50.0 83.0
12 0 16 171.0 203.0
13 3 -1 154.0 180.0
14 1 18 203.0 238.0
15 2 10 180.0 207.0
16 0 -1 275.0 306.0
17 1 14 69.0 105.0
18 1 -1 306.0 329.0
